100
1000
200
200
200
198
198
198
198
197
197
195
194
194
193
192
192
190
190
190
190
189
189
189
188
188
188
188
187
187
186
186
185
184
184
183
183
182
182
182
181
181
180
180
179
179
178
178
176
175
174
173
173
172
172
171
171
171
170
170
170
170
170
169
168
168
168
167
167
166
166
163
163
163
163
163
162
161
161
161
160
160
160
159
157
157
157
157
157
157
157
156
155
155
153
152
152
152
150
150
150
150
